3353.34 1
0 85 172 68 190 48 118 0
0 94 86 49 161 154 73 171 0
0 125 47 159 181 164 102 112 0
0 12 134 149 23 178 87 59 147 0
0 196 120 160 31 174 21 133 39 0
0 152 141 5 30 188 66 81 67 0
0 167 182 107 79 198 13 38 113 183 0
0 19 108 32 3 195 130 155 197 180 93 0
0 111 157 65 170 75 2 14 193 16 114 105 0
0 127 189 62 148 176 184 54 4 58 44 100 0
0 158 103 10 82 166 191 151 144 57 22 72 26 0
0 27 28 116 50 132 162 194 106 45 61 95 186 156 0
0 77 128 71 135 34 169 24 179 187 139 145 97 89 123 175 0
0 53 153 168 143 11 131 33 80 163 177 109 138 142 104 96 83 18 0
0 52 88 1 20 63 64 124 8 84 17 140 119 192 98 99 137 115 150 29 185 76 40 0
0 146 69 101 70 126 90 122 51 9 136 35 78 129 121 165 55 25 110 56 74 41 15 43 42 92 37 91 173 46 36 7 199 60 6 117 0
